20 380
0 1 60.3
0 2 43.3
0 3 28.5
0 4 20.5
0 5 41.6
0 6 20.6
0 7 15.0
0 8 25.8
0 9 22.6
0 10 41.9
0 11 27.8
0 12 11.6
0 13 1.8
0 14 37.7
0 15 23.9
0 16 49.2
0 17 58.4
0 18 17.4
0 19 55.8
1 2 103.4
1 3 83.2
1 4 70.7
1 5 78.9
1 6 70.5
1 7 64.8
1 8 84.3
1 9 82.5
1 10 18.8
1 11 59.9
1 12 71.8
1 13 62.0
1 14 22.6
1 15 49.4
1 16 77.8
1 17 73.4
1 18 72.8
1 19 5.6
2 3 26.1
2 4 37.4
2 5 50.0
2 6 37.7
2 7 41.1
2 8 20.4
2 9 23.6
2 10 84.7
2 11 59.8
2 12 32.5
2 13 41.6
2 14 80.8
2 15 59.0
2 16 60.9
2 17 76.0
2 18 37.2
2 19 98.7
3 4 12.8
3 5 25.3
3 6 13.0
3 7 18.5
3 8 8.8
3 9 24.6
3 10 64.5
3 11 54.1
3 12 23.3
3 13 26.8
3 14 61.2
3 15 35.3
3 16 36.1
3 17 50.6
3 18 34.3
3 19 78.1
4 5 22.1
4 6 0.3
4 7 6.6
4 8 17.2
4 9 27.8
4 10 52.0
4 11 48.2
4 12 21.1
4 13 19.3
4 14 48.9
4 15 22.5
4 16 31.3
4 17 43.5
4 18 32.5
4 19 65.5
5 6 21.9
5 7 26.7
5 8 33.8
5 9 48.3
5 10 61.8
5 11 69.4
5 12 43.1
5 13 40.7
5 14 60.0
5 15 31.1
5 16 10.9
5 17 26.1
5 18 54.5
5 19 73.4
6 7 6.5
6 8 17.5
6 9 28.1
6 10 51.9
6 11 48.3
6 12 21.3
6 13 19.4
6 14 48.7
6 15 22.3
6 16 31.0
6 17 43.2
6 18 32.7
6 19 65.3
7 8 20.7
7 9 27.5
7 10 46.0
7 11 42.8
7 12 18.7
7 13 14.0
7 14 42.7
7 15 17.9
7 16 34.6
7 17 45.2
7 18 29.3
7 19 59.6
8 9 16.2
8 10 65.5
8 11 48.6
8 12 17.6
8 13 24.0
8 14 61.7
8 15 38.6
8 16 44.5
8 17 58.6
8 18 27.4
8 19 79.4
9 10 64.3
9 11 36.3
9 12 11.1
9 13 21.2
9 14 60.1
9 15 43.8
9 16 58.5
9 17 71.3
9 18 13.7
9 19 78.2
10 11 46.1
10 12 53.4
10 13 43.5
10 14 4.5
10 15 31.3
10 16 62.1
10 17 60.5
10 18 55.5
10 19 14.0
11 12 31.1
11 13 28.9
11 14 41.7
11 15 46.5
11 16 76.5
11 17 84.0
11 18 22.7
11 19 57.4
12 13 10.1
12 14 49.2
12 15 33.3
12 16 52.3
12 17 63.8
12 18 11.5
12 19 67.4
13 14 39.3
13 15 24.4
13 16 48.6
13 17 58.1
13 18 17.0
13 19 57.4
14 15 29.0
14 16 61.0
14 17 60.5
14 18 51.0
14 19 18.2
15 16 33.7
15 17 37.9
15 18 41.3
15 19 44.0
16 17 15.6
16 18 63.6
16 19 72.2
17 18 74.4
17 19 68.0
18 19 69.0
